13,6	0,0	9,5	5,9	0,0	0,0	0,0	0,0	0,0	19,6
5,5	11,5	0,0	10,5	12,4	0,0	0,0	12,7	0,0	0,0
0,0	0,0	16,2	0,0	17,0	9,0	0,0	0,0	15,2	0,0
15,1	0,0	16,4	0,0	0,0	0,0	12,2	0,0	0,0	0,0
0,0	8,8	0,0	19,9	18,4	0,0	0,0	8,3	0,0	0,0
0,0	18,6	6,0	0,0	14,3	15,1	0,0	0,0	20,0	0,0
0,0	17,9	0,0	18,1	0,0	0,0	5,6	0,0	0,0	13,9
6,6	0,0	12,8	0,0	0,0	0,0	0,0	0,0	0,0	11,5
0,0	9,5	0,0	16,4	18,7	0,0	0,0	10,6	0,0	0,0
0,0	0,0	9,0	0,0	0,0	16,6	10,9	0,0	0,0	13,9
0,0	8,1	0,0	0,0	11,9	0,0	9,0	0,0	9,5	9,6
17,7	0,0	13,0	0,0	10,3	0,0	17,2	6,7	13,8	0,0
0,0	18,7	0,0	0,0	0,0	12,6	0,0	6,6	15,4	6,5
11,8	10,7	9,9	0,0	0,0	11,1	0,0	9,6	14,3	0,0
15,8	0,0	8,6	0,0	11,6	14,8	14,1	9,4	0,0	0,0
0,0	11,3	0,0	15,9	0,0	18,7	0,0	8,4	0,0	0,0
10,5	0,0	8,8	6,7	19,9	0,0	0,0	7,1	0,0	0,0
0,0	0,0	13,3	0,0	0,0	7,3	18,9	0,0	18,2	12,2
8,1	0,0	0,0	7,9	18,5	14,0	8,9	7,7	0,0	11,5
0,0	19,0	0,0	8,8	0,0	0,0	11,4	0,0	6,6	12,9
									
4,1	2,6	3,6	4,9	3,4	4,4	3,4	4,2	3,4	4,8
